&CONTROL
    calculation   = 'vc-relax',
    prefix        = 'Ni3Al',
    outdir        = './tmp/',
    pseudo_dir    = './',
    verbosity     = 'high',
/

&SYSTEM
    ibrav         = 2,
    a             = 3.57,
    nat           = 4,
    ntyp          = 2,
    ecutwfc       = 60,
    ecutrho       = 480,
    occupations   = 'smearing',
    smearing      = 'mp',
    degauss       = 0.02,
/

&ELECTRONS
    conv_thr      = 1.0d-8,
    mixing_beta   = 0.7,
/

&IONS
    ion_dynamics  = 'bfgs',
/

&CELL
    cell_dynamics = 'bfgs',
    cell_factor   = 3
/

ATOMIC_SPECIES
 Ni  58.6934  Ni.UPF
 Al  26.9815  Al.UPF

ATOMIC_POSITIONS (crystal)
 Ni  0.0000  0.0000  0.0000
 Ni  0.5000  0.5000  0.0000
 Ni  0.5000  0.0000  0.5000
 Al  0.0000  0.5000  0.5000

K_POINTS automatic
 12 12 12  0 0 0

